# Solution for model Model5
# Objective value = 24818
y[0,0,6] 1
y[0,0,7] 0
y[0,1,3] 1
y[0,1,4] 0
y[0,1,6] 0
y[0,2,1] 1
y[0,2,3] 0
y[0,2,6] 0
y[0,3,0] 1
y[0,3,1] 0
y[0,3,2] 0
y[1,0,4] 0
y[1,0,7] 1
y[1,1,4] 0
y[1,1,5] 0
y[1,1,6] 1
y[1,2,1] 0
y[1,2,2] 1
y[1,3,0] 1
y[1,3,2] 0
y[2,0,5] 0
y[2,0,7] 1
y[2,1,3] 1
y[2,1,4] 0
y[2,1,5] 0
y[2,2,2] 0
y[2,2,3] 0
y[2,2,6] 1
y[2,3,0] 1
y[2,3,1] 0
y[3,0,4] 1
y[3,0,5] 0
y[3,1,3] 0
y[3,1,5] 1
y[3,2,2] 1
y[3,2,4] 0
y[3,3,0] 1
y[3,3,1] 0
y[4,0,5] 0
y[4,0,7] 1
y[4,1,1] 0
y[4,1,4] 0
y[4,1,5] 1
y[4,2,3] 0
y[4,2,4] 1
y[4,2,6] 0
y[4,3,0] 0
y[4,3,1] 1
y[4,3,2] 0
y[5,0,3] 0
y[5,0,6] 1
y[5,1,4] 0
y[5,1,5] 1
y[5,1,6] 0
y[5,2,2] 0
y[5,2,3] 1
y[5,2,4] 0
y[5,3,1] 1
y[5,3,2] 0
y[5,3,3] 0
y[6,0,4] 0
y[6,0,7] 1
y[6,1,4] 1
y[6,1,5] 0
y[6,1,6] 0
y[6,2,2] 1
y[6,2,4] 0
y[6,3,1] 1
y[6,3,2] 0
y[7,0,6] 0
y[7,0,7] 1
y[7,1,4] 1
y[7,1,5] 0
y[7,1,6] 0
y[7,2,4] 1
y[7,2,5] 0
y[7,3,2] 1
y[7,3,3] 0
y[8,0,5] 1
y[8,0,7] 0
y[8,1,4] 0
y[8,1,6] 1
y[8,2,2] 0
y[8,2,3] 1
y[8,3,1] 0
y[8,3,2] 1
y[9,0,6] 0
y[9,0,7] 1
y[9,1,4] 1
y[9,1,5] 0
y[9,1,6] 0
y[9,2,4] 0
y[9,2,5] 1
y[9,3,2] 1
y[9,3,3] 0
y[10,0,5] 0
y[10,0,7] 1
y[10,1,4] 1
y[10,1,6] 0
y[10,2,2] 0
y[10,2,3] 1
y[10,3,1] 1
y[10,3,2] 0
x[0,0,0,0] 0
x[0,0,0,1] 1
x[0,0,0,2] 0
x[0,0,0,3] 0
x[0,0,1,0] 0
x[0,0,1,1] 1
x[0,0,1,2] 0
x[0,0,1,3] 0
x[0,0,2,0] 1
x[0,0,2,1] 0
x[0,0,2,2] 1
x[0,0,2,3] 0
x[0,0,3,0] 0
x[0,0,3,1] 0
x[0,0,3,2] 0
x[0,0,3,3] 0
x[0,0,4,0] 1
x[0,0,4,1] 0
x[0,0,4,2] 0
x[0,0,4,3] 0
x[0,0,5,0] 1
x[0,0,5,1] 1
x[0,0,5,2] 0
x[0,0,5,3] 0
x[0,0,6,0] 0
x[0,0,6,1] 0
x[0,0,6,2] 0
x[0,0,6,3] 0
x[0,0,7,0] 0
x[0,0,7,1] 0
x[0,0,7,2] 0
x[0,0,7,3] 0
x[0,0,8,0] 0
x[0,0,8,1] 1
x[0,0,8,2] 0
x[0,0,8,3] 0
x[0,0,9,0] 0
x[0,0,9,1] 0
x[0,0,9,2] 0
x[0,0,9,3] 0
x[0,0,10,0] 0
x[0,0,10,1] 0
x[0,0,10,2] 0
x[0,0,10,3] 0
x[0,1,0,0] 0
x[0,1,0,1] 0
x[0,1,0,2] 0
x[0,1,0,3] 0
x[0,1,1,0] 1
x[0,1,1,1] 0
x[0,1,1,2] 0
x[0,1,1,3] 0
x[0,1,2,0] 0
x[0,1,2,1] 1
x[0,1,2,2] 1
x[0,1,2,3] 0
x[0,1,3,0] 1
x[0,1,3,1] 0
x[0,1,3,2] 0
x[0,1,3,3] 0
x[0,1,4,0] 0
x[0,1,4,1] 0
x[0,1,4,2] 0
x[0,1,4,3] 0
x[0,1,5,0] 1
x[0,1,5,1] 0
x[0,1,5,2] 1
x[0,1,5,3] 0
x[0,1,6,0] 1
x[0,1,6,1] 1
x[0,1,6,2] 0
x[0,1,6,3] 0
x[0,1,7,0] 0
x[0,1,7,1] 1
x[0,1,7,2] 1
x[0,1,7,3] 0
x[0,1,8,0] 0
x[0,1,8,1] 1
x[0,1,8,2] 1
x[0,1,8,3] 0
x[0,1,9,0] 0
x[0,1,9,1] 1
x[0,1,9,2] 1
x[0,1,9,3] 0
x[0,1,10,0] 0
x[0,1,10,1] 0
x[0,1,10,2] 1
x[0,1,10,3] 0
x[0,2,0,0] 1
x[0,2,0,1] 1
x[0,2,0,2] 0
x[0,2,0,3] 0
x[0,2,1,0] 0
x[0,2,1,1] 0
x[0,2,1,2] 1
x[0,2,1,3] 0
x[0,2,2,0] 0
x[0,2,2,1] 0
x[0,2,2,2] 0
x[0,2,2,3] 0
x[0,2,3,0] 0
x[0,2,3,1] 0
x[0,2,3,2] 0
x[0,2,3,3] 1
x[0,2,4,0] 0
x[0,2,4,1] 0
x[0,2,4,2] 0
x[0,2,4,3] 1
x[0,2,5,0] 0
x[0,2,5,1] 0
x[0,2,5,2] 0
x[0,2,5,3] 1
x[0,2,6,0] 0
x[0,2,6,1] 0
x[0,2,6,2] 0
x[0,2,6,3] 1
x[0,2,7,0] 0
x[0,2,7,1] 1
x[0,2,7,2] 0
x[0,2,7,3] 0
x[0,2,8,0] 0
x[0,2,8,1] 0
x[0,2,8,2] 0
x[0,2,8,3] 0
x[0,2,9,0] 0
x[0,2,9,1] 0
x[0,2,9,2] 0
x[0,2,9,3] 0
x[0,2,10,0] 0
x[0,2,10,1] 0
x[0,2,10,2] 0
x[0,2,10,3] 1
x[0,3,0,0] 0
x[0,3,0,1] 0
x[0,3,0,2] 1
x[0,3,0,3] 0
x[0,3,1,0] 0
x[0,3,1,1] 0
x[0,3,1,2] 1
x[0,3,1,3] 1
x[0,3,2,0] 0
x[0,3,2,1] 0
x[0,3,2,2] 0
x[0,3,2,3] 1
x[0,3,3,0] 0
x[0,3,3,1] 0
x[0,3,3,2] 1
x[0,3,3,3] 1
x[0,3,4,0] 0
x[0,3,4,1] 0
x[0,3,4,2] 0
x[0,3,4,3] 0
x[0,3,5,0] 0
x[0,3,5,1] 0
x[0,3,5,2] 0
x[0,3,5,3] 0
x[0,3,6,0] 0
x[0,3,6,1] 0
x[0,3,6,2] 1
x[0,3,6,3] 0
x[0,3,7,0] 0
x[0,3,7,1] 0
x[0,3,7,2] 0
x[0,3,7,3] 0
x[0,3,8,0] 0
x[0,3,8,1] 0
x[0,3,8,2] 0
x[0,3,8,3] 1
x[0,3,9,0] 0
x[0,3,9,1] 0
x[0,3,9,2] 0
x[0,3,9,3] 0
x[0,3,10,0] 0
x[0,3,10,1] 0
x[0,3,10,2] 0
x[0,3,10,3] 0
x[1,0,0,0] 0
x[1,0,0,1] 0
x[1,0,0,2] 0
x[1,0,0,3] 0
x[1,0,1,0] 0
x[1,0,1,1] 0
x[1,0,1,2] 0
x[1,0,1,3] 0
x[1,0,2,0] 0
x[1,0,2,1] 1
x[1,0,2,2] 0
x[1,0,2,3] 0
x[1,0,3,0] 1
x[1,0,3,1] 0
x[1,0,3,2] 0
x[1,0,3,3] 0
x[1,0,4,0] 1
x[1,0,4,1] 0
x[1,0,4,2] 1
x[1,0,4,3] 0
x[1,0,5,0] 0
x[1,0,5,1] 0
x[1,0,5,2] 1
x[1,0,5,3] 0
x[1,0,6,0] 0
x[1,0,6,1] 1
x[1,0,6,2] 0
x[1,0,6,3] 0
x[1,0,7,0] 0
x[1,0,7,1] 1
x[1,0,7,2] 1
x[1,0,7,3] 0
x[1,0,8,0] 0
x[1,0,8,1] 0
x[1,0,8,2] 0
x[1,0,8,3] 0
x[1,0,9,0] 0
x[1,0,9,1] 1
x[1,0,9,2] 1
x[1,0,9,3] 0
x[1,0,10,0] 1
x[1,0,10,1] 1
x[1,0,10,2] 0
x[1,0,10,3] 0
x[1,1,0,0] 0
x[1,1,0,1] 0
x[1,1,0,2] 0
x[1,1,0,3] 0
x[1,1,1,0] 1
x[1,1,1,1] 0
x[1,1,1,2] 0
x[1,1,1,3] 0
x[1,1,2,0] 0
x[1,1,2,1] 0
x[1,1,2,2] 0
x[1,1,2,3] 0
x[1,1,3,0] 0
x[1,1,3,1] 0
x[1,1,3,2] 0
x[1,1,3,3] 0
x[1,1,4,0] 0
x[1,1,4,1] 0
x[1,1,4,2] 0
x[1,1,4,3] 0
x[1,1,5,0] 0
x[1,1,5,1] 0
x[1,1,5,2] 0
x[1,1,5,3] 0
x[1,1,6,0] 0
x[1,1,6,1] 0
x[1,1,6,2] 0
x[1,1,6,3] 0
x[1,1,7,0] 0
x[1,1,7,1] 0
x[1,1,7,2] 0
x[1,1,7,3] 0
x[1,1,8,0] 0
x[1,1,8,1] 1
x[1,1,8,2] 0
x[1,1,8,3] 0
x[1,1,9,0] 0
x[1,1,9,1] 0
x[1,1,9,2] 0
x[1,1,9,3] 0
x[1,1,10,0] 0
x[1,1,10,1] 0
x[1,1,10,2] 0
x[1,1,10,3] 0
x[1,2,0,0] 0
x[1,2,0,1] 0
x[1,2,0,2] 0
x[1,2,0,3] 0
x[1,2,1,0] 0
x[1,2,1,1] 0
x[1,2,1,2] 0
x[1,2,1,3] 0
x[1,2,2,0] 0
x[1,2,2,1] 0
x[1,2,2,2] 0
x[1,2,2,3] 0
x[1,2,3,0] 0
x[1,2,3,1] 0
x[1,2,3,2] 1
x[1,2,3,3] 0
x[1,2,4,0] 0
x[1,2,4,1] 0
x[1,2,4,2] 0
x[1,2,4,3] 0
x[1,2,5,0] 0
x[1,2,5,1] 0
x[1,2,5,2] 0
x[1,2,5,3] 0
x[1,2,6,0] 0
x[1,2,6,1] 0
x[1,2,6,2] 0
x[1,2,6,3] 0
x[1,2,7,0] 0
x[1,2,7,1] 0
x[1,2,7,2] 0
x[1,2,7,3] 0
x[1,2,8,0] 0
x[1,2,8,1] 0
x[1,2,8,2] 0
x[1,2,8,3] 1
x[1,2,9,0] 0
x[1,2,9,1] 0
x[1,2,9,2] 0
x[1,2,9,3] 0
x[1,2,10,0] 0
x[1,2,10,1] 0
x[1,2,10,2] 0
x[1,2,10,3] 1
x[1,3,0,0] 0
x[1,3,0,1] 0
x[1,3,0,2] 0
x[1,3,0,3] 0
x[1,3,1,0] 0
x[1,3,1,1] 0
x[1,3,1,2] 1
x[1,3,1,3] 0
x[1,3,2,0] 0
x[1,3,2,1] 0
x[1,3,2,2] 0
x[1,3,2,3] 0
x[1,3,3,0] 0
x[1,3,3,1] 0
x[1,3,3,2] 0
x[1,3,3,3] 1
x[1,3,4,0] 0
x[1,3,4,1] 0
x[1,3,4,2] 0
x[1,3,4,3] 0
x[1,3,5,0] 0
x[1,3,5,1] 0
x[1,3,5,2] 1
x[1,3,5,3] 0
x[1,3,6,0] 0
x[1,3,6,1] 0
x[1,3,6,2] 0
x[1,3,6,3] 0
x[1,3,7,0] 0
x[1,3,7,1] 0
x[1,3,7,2] 0
x[1,3,7,3] 0
x[1,3,8,0] 0
x[1,3,8,1] 0
x[1,3,8,2] 0
x[1,3,8,3] 1
x[1,3,9,0] 0
x[1,3,9,1] 0
x[1,3,9,2] 0
x[1,3,9,3] 0
x[1,3,10,0] 0
x[1,3,10,1] 0
x[1,3,10,2] 0
x[1,3,10,3] 0
x[2,0,0,0] 0
x[2,0,0,1] 0
x[2,0,0,2] 0
x[2,0,0,3] 0
x[2,0,1,0] 0
x[2,0,1,1] 0
x[2,0,1,2] 0
x[2,0,1,3] 0
x[2,0,2,0] 0
x[2,0,2,1] 0
x[2,0,2,2] 0
x[2,0,2,3] 0
x[2,0,3,0] 0
x[2,0,3,1] 1
x[2,0,3,2] 0
x[2,0,3,3] 0
x[2,0,4,0] 1
x[2,0,4,1] 0
x[2,0,4,2] 0
x[2,0,4,3] 0
x[2,0,5,0] 0
x[2,0,5,1] 0
x[2,0,5,2] 0
x[2,0,5,3] 0
x[2,0,6,0] 1
x[2,0,6,1] 0
x[2,0,6,2] 0
x[2,0,6,3] 0
x[2,0,7,0] 0
x[2,0,7,1] 0
x[2,0,7,2] 0
x[2,0,7,3] 0
x[2,0,8,0] 0
x[2,0,8,1] 0
x[2,0,8,2] 0
x[2,0,8,3] 0
x[2,0,9,0] 0
x[2,0,9,1] 0
x[2,0,9,2] 0
x[2,0,9,3] 0
x[2,0,10,0] 1
x[2,0,10,1] 0
x[2,0,10,2] 0
x[2,0,10,3] 0
x[2,1,0,0] 0
x[2,1,0,1] 0
x[2,1,0,2] 0
x[2,1,0,3] 0
x[2,1,1,0] 0
x[2,1,1,1] 0
x[2,1,1,2] 0
x[2,1,1,3] 0
x[2,1,2,0] 1
x[2,1,2,1] 0
x[2,1,2,2] 0
x[2,1,2,3] 0
x[2,1,3,0] 1
x[2,1,3,1] 1
x[2,1,3,2] 0
x[2,1,3,3] 0
x[2,1,4,0] 0
x[2,1,4,1] 1
x[2,1,4,2] 1
x[2,1,4,3] 0
x[2,1,5,0] 0
x[2,1,5,1] 0
x[2,1,5,2] 1
x[2,1,5,3] 0
x[2,1,6,0] 1
x[2,1,6,1] 1
x[2,1,6,2] 0
x[2,1,6,3] 0
x[2,1,7,0] 0
x[2,1,7,1] 1
x[2,1,7,2] 1
x[2,1,7,3] 0
x[2,1,8,0] 1
x[2,1,8,1] 0
x[2,1,8,2] 1
x[2,1,8,3] 0
x[2,1,9,0] 0
x[2,1,9,1] 1
x[2,1,9,2] 0
x[2,1,9,3] 0
x[2,1,10,0] 0
x[2,1,10,1] 1
x[2,1,10,2] 1
x[2,1,10,3] 0
x[2,2,0,0] 0
x[2,2,0,1] 0
x[2,2,0,2] 0
x[2,2,0,3] 0
x[2,2,1,0] 0
x[2,2,1,1] 0
x[2,2,1,2] 0
x[2,2,1,3] 0
x[2,2,2,0] 0
x[2,2,2,1] 1
x[2,2,2,2] 0
x[2,2,2,3] 0
x[2,2,3,0] 0
x[2,2,3,1] 0
x[2,2,3,2] 1
x[2,2,3,3] 0
x[2,2,4,0] 0
x[2,2,4,1] 0
x[2,2,4,2] 0
x[2,2,4,3] 0
x[2,2,5,0] 0
x[2,2,5,1] 1
x[2,2,5,2] 0
x[2,2,5,3] 0
x[2,2,6,0] 0
x[2,2,6,1] 0
x[2,2,6,2] 1
x[2,2,6,3] 0
x[2,2,7,0] 0
x[2,2,7,1] 0
x[2,2,7,2] 0
x[2,2,7,3] 1
x[2,2,8,0] 0
x[2,2,8,1] 1
x[2,2,8,2] 0
x[2,2,8,3] 1
x[2,2,9,0] 0
x[2,2,9,1] 0
x[2,2,9,2] 0
x[2,2,9,3] 1
x[2,2,10,0] 0
x[2,2,10,1] 0
x[2,2,10,2] 0
x[2,2,10,3] 0
x[2,3,0,0] 0
x[2,3,0,1] 0
x[2,3,0,2] 0
x[2,3,0,3] 0
x[2,3,1,0] 0
x[2,3,1,1] 0
x[2,3,1,2] 0
x[2,3,1,3] 0
x[2,3,2,0] 0
x[2,3,2,1] 0
x[2,3,2,2] 0
x[2,3,2,3] 0
x[2,3,3,0] 0
x[2,3,3,1] 0
x[2,3,3,2] 0
x[2,3,3,3] 1
x[2,3,4,0] 0
x[2,3,4,1] 0
x[2,3,4,2] 0
x[2,3,4,3] 1
x[2,3,5,0] 0
x[2,3,5,1] 0
x[2,3,5,2] 0
x[2,3,5,3] 1
x[2,3,6,0] 0
x[2,3,6,1] 0
x[2,3,6,2] 0
x[2,3,6,3] 0
x[2,3,7,0] 0
x[2,3,7,1] 0
x[2,3,7,2] 0
x[2,3,7,3] 0
x[2,3,8,0] 0
x[2,3,8,1] 0
x[2,3,8,2] 0
x[2,3,8,3] 0
x[2,3,9,0] 0
x[2,3,9,1] 0
x[2,3,9,2] 0
x[2,3,9,3] 0
x[2,3,10,0] 0
x[2,3,10,1] 0
x[2,3,10,2] 0
x[2,3,10,3] 1
x[3,0,0,0] 0
x[3,0,0,1] 0
x[3,0,0,2] 0
x[3,0,0,3] 0
x[3,0,1,0] 0
x[3,0,1,1] 0
x[3,0,1,2] 0
x[3,0,1,3] 0
x[3,0,2,0] 0
x[3,0,2,1] 0
x[3,0,2,2] 0
x[3,0,2,3] 0
x[3,0,3,0] 0
x[3,0,3,1] 0
x[3,0,3,2] 0
x[3,0,3,3] 0
x[3,0,4,0] 0
x[3,0,4,1] 1
x[3,0,4,2] 1
x[3,0,4,3] 0
x[3,0,5,0] 0
x[3,0,5,1] 0
x[3,0,5,2] 1
x[3,0,5,3] 0
x[3,0,6,0] 1
x[3,0,6,1] 0
x[3,0,6,2] 0
x[3,0,6,3] 0
x[3,0,7,0] 0
x[3,0,7,1] 0
x[3,0,7,2] 0
x[3,0,7,3] 0
x[3,0,8,0] 1
x[3,0,8,1] 1
x[3,0,8,2] 0
x[3,0,8,3] 0
x[3,0,9,0] 0
x[3,0,9,1] 0
x[3,0,9,2] 0
x[3,0,9,3] 0
x[3,0,10,0] 0
x[3,0,10,1] 1
x[3,0,10,2] 0
x[3,0,10,3] 0
x[3,1,0,0] 0
x[3,1,0,1] 0
x[3,1,0,2] 0
x[3,1,0,3] 0
x[3,1,1,0] 0
x[3,1,1,1] 0
x[3,1,1,2] 0
x[3,1,1,3] 0
x[3,1,2,0] 0
x[3,1,2,1] 0
x[3,1,2,2] 0
x[3,1,2,3] 0
x[3,1,3,0] 1
x[3,1,3,1] 0
x[3,1,3,2] 0
x[3,1,3,3] 0
x[3,1,4,0] 0
x[3,1,4,1] 1
x[3,1,4,2] 0
x[3,1,4,3] 0
x[3,1,5,0] 0
x[3,1,5,1] 0
x[3,1,5,2] 0
x[3,1,5,3] 0
x[3,1,6,0] 0
x[3,1,6,1] 0
x[3,1,6,2] 0
x[3,1,6,3] 0
x[3,1,7,0] 0
x[3,1,7,1] 0
x[3,1,7,2] 0
x[3,1,7,3] 0
x[3,1,8,0] 1
x[3,1,8,1] 0
x[3,1,8,2] 0
x[3,1,8,3] 0
x[3,1,9,0] 0
x[3,1,9,1] 0
x[3,1,9,2] 0
x[3,1,9,3] 0
x[3,1,10,0] 0
x[3,1,10,1] 0
x[3,1,10,2] 0
x[3,1,10,3] 0
x[3,2,0,0] 0
x[3,2,0,1] 0
x[3,2,0,2] 0
x[3,2,0,3] 0
x[3,2,1,0] 0
x[3,2,1,1] 0
x[3,2,1,2] 0
x[3,2,1,3] 0
x[3,2,2,0] 0
x[3,2,2,1] 0
x[3,2,2,2] 0
x[3,2,2,3] 0
x[3,2,3,0] 1
x[3,2,3,1] 0
x[3,2,3,2] 0
x[3,2,3,3] 0
x[3,2,4,0] 0
x[3,2,4,1] 0
x[3,2,4,2] 0
x[3,2,4,3] 0
x[3,2,5,0] 0
x[3,2,5,1] 0
x[3,2,5,2] 0
x[3,2,5,3] 0
x[3,2,6,0] 0
x[3,2,6,1] 0
x[3,2,6,2] 0
x[3,2,6,3] 0
x[3,2,7,0] 0
x[3,2,7,1] 0
x[3,2,7,2] 0
x[3,2,7,3] 0
x[3,2,8,0] 0
x[3,2,8,1] 0
x[3,2,8,2] 0
x[3,2,8,3] 1
x[3,2,9,0] 0
x[3,2,9,1] 0
x[3,2,9,2] 0
x[3,2,9,3] 0
x[3,2,10,0] 0
x[3,2,10,1] 0
x[3,2,10,2] 0
x[3,2,10,3] 0
x[3,3,0,0] 0
x[3,3,0,1] 0
x[3,3,0,2] 0
x[3,3,0,3] 0
x[3,3,1,0] 0
x[3,3,1,1] 0
x[3,3,1,2] 0
x[3,3,1,3] 0
x[3,3,2,0] 0
x[3,3,2,1] 0
x[3,3,2,2] 0
x[3,3,2,3] 0
x[3,3,3,0] 0
x[3,3,3,1] 0
x[3,3,3,2] 0
x[3,3,3,3] 0
x[3,3,4,0] 0
x[3,3,4,1] 0
x[3,3,4,2] 0
x[3,3,4,3] 1
x[3,3,5,0] 0
x[3,3,5,1] 0
x[3,3,5,2] 0
x[3,3,5,3] 0
x[3,3,6,0] 0
x[3,3,6,1] 0
x[3,3,6,2] 0
x[3,3,6,3] 0
x[3,3,7,0] 0
x[3,3,7,1] 0
x[3,3,7,2] 0
x[3,3,7,3] 0
x[3,3,8,0] 0
x[3,3,8,1] 0
x[3,3,8,2] 0
x[3,3,8,3] 0
x[3,3,9,0] 0
x[3,3,9,1] 0
x[3,3,9,2] 0
x[3,3,9,3] 0
x[3,3,10,0] 0
x[3,3,10,1] 0
x[3,3,10,2] 0
x[3,3,10,3] 0
x[4,0,0,0] 0
x[4,0,0,1] 0
x[4,0,0,2] 0
x[4,0,0,3] 0
x[4,0,1,0] 0
x[4,0,1,1] 0
x[4,0,1,2] 0
x[4,0,1,3] 0
x[4,0,2,0] 0
x[4,0,2,1] 0
x[4,0,2,2] 0
x[4,0,2,3] 0
x[4,0,3,0] 0
x[4,0,3,1] 0
x[4,0,3,2] 0
x[4,0,3,3] 0
x[4,0,4,0] 0
x[4,0,4,1] 0
x[4,0,4,2] 0
x[4,0,4,3] 0
x[4,0,5,0] 0
x[4,0,5,1] 0
x[4,0,5,2] 0
x[4,0,5,3] 0
x[4,0,6,0] 0
x[4,0,6,1] 0
x[4,0,6,2] 0
x[4,0,6,3] 0
x[4,0,7,0] 0
x[4,0,7,1] 0
x[4,0,7,2] 0
x[4,0,7,3] 0
x[4,0,8,0] 0
x[4,0,8,1] 0
x[4,0,8,2] 0
x[4,0,8,3] 0
x[4,0,9,0] 0
x[4,0,9,1] 0
x[4,0,9,2] 0
x[4,0,9,3] 0
x[4,0,10,0] 0
x[4,0,10,1] 0
x[4,0,10,2] 0
x[4,0,10,3] 0
x[4,1,0,0] 0
x[4,1,0,1] 0
x[4,1,0,2] 0
x[4,1,0,3] 0
x[4,1,1,0] 0
x[4,1,1,1] 0
x[4,1,1,2] 0
x[4,1,1,3] 0
x[4,1,2,0] 0
x[4,1,2,1] 0
x[4,1,2,2] 0
x[4,1,2,3] 0
x[4,1,3,0] 0
x[4,1,3,1] 0
x[4,1,3,2] 0
x[4,1,3,3] 0
x[4,1,4,0] 1
x[4,1,4,1] 0
x[4,1,4,2] 0
x[4,1,4,3] 0
x[4,1,5,0] 0
x[4,1,5,1] 0
x[4,1,5,2] 0
x[4,1,5,3] 0
x[4,1,6,0] 0
x[4,1,6,1] 0
x[4,1,6,2] 0
x[4,1,6,3] 0
x[4,1,7,0] 0
x[4,1,7,1] 0
x[4,1,7,2] 0
x[4,1,7,3] 0
x[4,1,8,0] 0
x[4,1,8,1] 0
x[4,1,8,2] 0
x[4,1,8,3] 0
x[4,1,9,0] 0
x[4,1,9,1] 0
x[4,1,9,2] 0
x[4,1,9,3] 0
x[4,1,10,0] 0
x[4,1,10,1] 0
x[4,1,10,2] 0
x[4,1,10,3] 0
x[4,2,0,0] 0
x[4,2,0,1] 0
x[4,2,0,2] 0
x[4,2,0,3] 0
x[4,2,1,0] 0
x[4,2,1,1] 0
x[4,2,1,2] 0
x[4,2,1,3] 0
x[4,2,2,0] 0
x[4,2,2,1] 0
x[4,2,2,2] 0
x[4,2,2,3] 0
x[4,2,3,0] 0
x[4,2,3,1] 0
x[4,2,3,2] 0
x[4,2,3,3] 0
x[4,2,4,0] 0
x[4,2,4,1] 1
x[4,2,4,2] 0
x[4,2,4,3] 0
x[4,2,5,0] 0
x[4,2,5,1] 0
x[4,2,5,2] 0
x[4,2,5,3] 0
x[4,2,6,0] 1
x[4,2,6,1] 0
x[4,2,6,2] 0
x[4,2,6,3] 0
x[4,2,7,0] 0
x[4,2,7,1] 0
x[4,2,7,2] 0
x[4,2,7,3] 0
x[4,2,8,0] 0
x[4,2,8,1] 0
x[4,2,8,2] 0
x[4,2,8,3] 0
x[4,2,9,0] 0
x[4,2,9,1] 0
x[4,2,9,2] 0
x[4,2,9,3] 0
x[4,2,10,0] 0
x[4,2,10,1] 0
x[4,2,10,2] 0
x[4,2,10,3] 0
x[4,3,0,0] 0
x[4,3,0,1] 0
x[4,3,0,2] 0
x[4,3,0,3] 0
x[4,3,1,0] 0
x[4,3,1,1] 0
x[4,3,1,2] 0
x[4,3,1,3] 0
x[4,3,2,0] 0
x[4,3,2,1] 0
x[4,3,2,2] 0
x[4,3,2,3] 0
x[4,3,3,0] 0
x[4,3,3,1] 0
x[4,3,3,2] 0
x[4,3,3,3] 0
x[4,3,4,0] 0
x[4,3,4,1] 1
x[4,3,4,2] 0
x[4,3,4,3] 0
x[4,3,5,0] 0
x[4,3,5,1] 0
x[4,3,5,2] 0
x[4,3,5,3] 0
x[4,3,6,0] 0
x[4,3,6,1] 0
x[4,3,6,2] 0
x[4,3,6,3] 0
x[4,3,7,0] 0
x[4,3,7,1] 0
x[4,3,7,2] 0
x[4,3,7,3] 0
x[4,3,8,0] 0
x[4,3,8,1] 0
x[4,3,8,2] 0
x[4,3,8,3] 0
x[4,3,9,0] 0
x[4,3,9,1] 0
x[4,3,9,2] 0
x[4,3,9,3] 0
x[4,3,10,0] 0
x[4,3,10,1] 0
x[4,3,10,2] 0
x[4,3,10,3] 0
x[5,0,0,0] 0
x[5,0,0,1] 0
x[5,0,0,2] 0
x[5,0,0,3] 0
x[5,0,1,0] 0
x[5,0,1,1] 0
x[5,0,1,2] 0
x[5,0,1,3] 0
x[5,0,2,0] 0
x[5,0,2,1] 0
x[5,0,2,2] 0
x[5,0,2,3] 0
x[5,0,3,0] 0
x[5,0,3,1] 0
x[5,0,3,2] 0
x[5,0,3,3] 0
x[5,0,4,0] 0
x[5,0,4,1] 0
x[5,0,4,2] 0
x[5,0,4,3] 0
x[5,0,5,0] 0
x[5,0,5,1] 0
x[5,0,5,2] 0
x[5,0,5,3] 0
x[5,0,6,0] 0
x[5,0,6,1] 0
x[5,0,6,2] 0
x[5,0,6,3] 0
x[5,0,7,0] 0
x[5,0,7,1] 0
x[5,0,7,2] 0
x[5,0,7,3] 0
x[5,0,8,0] 0
x[5,0,8,1] 1
x[5,0,8,2] 1
x[5,0,8,3] 0
x[5,0,9,0] 0
x[5,0,9,1] 0
x[5,0,9,2] 0
x[5,0,9,3] 0
x[5,0,10,0] 0
x[5,0,10,1] 0
x[5,0,10,2] 0
x[5,0,10,3] 0
x[5,1,0,0] 0
x[5,1,0,1] 0
x[5,1,0,2] 0
x[5,1,0,3] 0
x[5,1,1,0] 0
x[5,1,1,1] 0
x[5,1,1,2] 0
x[5,1,1,3] 0
x[5,1,2,0] 0
x[5,1,2,1] 0
x[5,1,2,2] 0
x[5,1,2,3] 0
x[5,1,3,0] 0
x[5,1,3,1] 0
x[5,1,3,2] 0
x[5,1,3,3] 0
x[5,1,4,0] 0
x[5,1,4,1] 0
x[5,1,4,2] 0
x[5,1,4,3] 0
x[5,1,5,0] 1
x[5,1,5,1] 0
x[5,1,5,2] 0
x[5,1,5,3] 0
x[5,1,6,0] 0
x[5,1,6,1] 0
x[5,1,6,2] 0
x[5,1,6,3] 0
x[5,1,7,0] 0
x[5,1,7,1] 0
x[5,1,7,2] 0
x[5,1,7,3] 0
x[5,1,8,0] 1
x[5,1,8,1] 0
x[5,1,8,2] 0
x[5,1,8,3] 0
x[5,1,9,0] 0
x[5,1,9,1] 0
x[5,1,9,2] 0
x[5,1,9,3] 0
x[5,1,10,0] 1
x[5,1,10,1] 0
x[5,1,10,2] 0
x[5,1,10,3] 0
x[5,2,0,0] 0
x[5,2,0,1] 0
x[5,2,0,2] 0
x[5,2,0,3] 0
x[5,2,1,0] 0
x[5,2,1,1] 0
x[5,2,1,2] 0
x[5,2,1,3] 0
x[5,2,2,0] 0
x[5,2,2,1] 0
x[5,2,2,2] 0
x[5,2,2,3] 0
x[5,2,3,0] 0
x[5,2,3,1] 0
x[5,2,3,2] 0
x[5,2,3,3] 0
x[5,2,4,0] 0
x[5,2,4,1] 0
x[5,2,4,2] 0
x[5,2,4,3] 0
x[5,2,5,0] 1
x[5,2,5,1] 1
x[5,2,5,2] 0
x[5,2,5,3] 1
x[5,2,6,0] 1
x[5,2,6,1] 1
x[5,2,6,2] 1
x[5,2,6,3] 0
x[5,2,7,0] 0
x[5,2,7,1] 1
x[5,2,7,2] 1
x[5,2,7,3] 1
x[5,2,8,0] 0
x[5,2,8,1] 0
x[5,2,8,2] 1
x[5,2,8,3] 1
x[5,2,9,0] 0
x[5,2,9,1] 1
x[5,2,9,2] 1
x[5,2,9,3] 1
x[5,2,10,0] 0
x[5,2,10,1] 1
x[5,2,10,2] 1
x[5,2,10,3] 0
x[5,3,0,0] 0
x[5,3,0,1] 0
x[5,3,0,2] 0
x[5,3,0,3] 0
x[5,3,1,0] 0
x[5,3,1,1] 0
x[5,3,1,2] 0
x[5,3,1,3] 0
x[5,3,2,0] 0
x[5,3,2,1] 0
x[5,3,2,2] 0
x[5,3,2,3] 0
x[5,3,3,0] 0
x[5,3,3,1] 0
x[5,3,3,2] 0
x[5,3,3,3] 0
x[5,3,4,0] 0
x[5,3,4,1] 0
x[5,3,4,2] 0
x[5,3,4,3] 0
x[5,3,5,0] 1
x[5,3,5,1] 0
x[5,3,5,2] 0
x[5,3,5,3] 0
x[5,3,6,0] 0
x[5,3,6,1] 0
x[5,3,6,2] 1
x[5,3,6,3] 1
x[5,3,7,0] 0
x[5,3,7,1] 0
x[5,3,7,2] 0
x[5,3,7,3] 1
x[5,3,8,0] 0
x[5,3,8,1] 0
x[5,3,8,2] 1
x[5,3,8,3] 1
x[5,3,9,0] 0
x[5,3,9,1] 0
x[5,3,9,2] 0
x[5,3,9,3] 1
x[5,3,10,0] 0
x[5,3,10,1] 0
x[5,3,10,2] 1
x[5,3,10,3] 1
x[6,0,0,0] 0
x[6,0,0,1] 0
x[6,0,0,2] 0
x[6,0,0,3] 0
x[6,0,1,0] 0
x[6,0,1,1] 0
x[6,0,1,2] 0
x[6,0,1,3] 0
x[6,0,2,0] 0
x[6,0,2,1] 0
x[6,0,2,2] 0
x[6,0,2,3] 0
x[6,0,3,0] 0
x[6,0,3,1] 0
x[6,0,3,2] 0
x[6,0,3,3] 0
x[6,0,4,0] 0
x[6,0,4,1] 0
x[6,0,4,2] 0
x[6,0,4,3] 0
x[6,0,5,0] 0
x[6,0,5,1] 0
x[6,0,5,2] 0
x[6,0,5,3] 0
x[6,0,6,0] 0
x[6,0,6,1] 1
x[6,0,6,2] 0
x[6,0,6,3] 0
x[6,0,7,0] 0
x[6,0,7,1] 1
x[6,0,7,2] 1
x[6,0,7,3] 0
x[6,0,8,0] 0
x[6,0,8,1] 0
x[6,0,8,2] 0
x[6,0,8,3] 0
x[6,0,9,0] 0
x[6,0,9,1] 1
x[6,0,9,2] 1
x[6,0,9,3] 0
x[6,0,10,0] 1
x[6,0,10,1] 1
x[6,0,10,2] 0
x[6,0,10,3] 0
x[6,1,0,0] 0
x[6,1,0,1] 0
x[6,1,0,2] 0
x[6,1,0,3] 0
x[6,1,1,0] 0
x[6,1,1,1] 0
x[6,1,1,2] 0
x[6,1,1,3] 0
x[6,1,2,0] 0
x[6,1,2,1] 0
x[6,1,2,2] 0
x[6,1,2,3] 0
x[6,1,3,0] 0
x[6,1,3,1] 0
x[6,1,3,2] 0
x[6,1,3,3] 0
x[6,1,4,0] 0
x[6,1,4,1] 0
x[6,1,4,2] 0
x[6,1,4,3] 0
x[6,1,5,0] 0
x[6,1,5,1] 0
x[6,1,5,2] 0
x[6,1,5,3] 0
x[6,1,6,0] 0
x[6,1,6,1] 0
x[6,1,6,2] 0
x[6,1,6,3] 0
x[6,1,7,0] 0
x[6,1,7,1] 0
x[6,1,7,2] 0
x[6,1,7,3] 0
x[6,1,8,0] 0
x[6,1,8,1] 1
x[6,1,8,2] 0
x[6,1,8,3] 0
x[6,1,9,0] 0
x[6,1,9,1] 0
x[6,1,9,2] 0
x[6,1,9,3] 0
x[6,1,10,0] 0
x[6,1,10,1] 1
x[6,1,10,2] 0
x[6,1,10,3] 0
x[6,2,0,0] 0
x[6,2,0,1] 0
x[6,2,0,2] 0
x[6,2,0,3] 0
x[6,2,1,0] 0
x[6,2,1,1] 0
x[6,2,1,2] 0
x[6,2,1,3] 0
x[6,2,2,0] 0
x[6,2,2,1] 0
x[6,2,2,2] 0
x[6,2,2,3] 0
x[6,2,3,0] 0
x[6,2,3,1] 0
x[6,2,3,2] 0
x[6,2,3,3] 0
x[6,2,4,0] 0
x[6,2,4,1] 0
x[6,2,4,2] 0
x[6,2,4,3] 0
x[6,2,5,0] 0
x[6,2,5,1] 0
x[6,2,5,2] 0
x[6,2,5,3] 0
x[6,2,6,0] 1
x[6,2,6,1] 1
x[6,2,6,2] 0
x[6,2,6,3] 0
x[6,2,7,0] 0
x[6,2,7,1] 0
x[6,2,7,2] 0
x[6,2,7,3] 0
x[6,2,8,0] 0
x[6,2,8,1] 0
x[6,2,8,2] 0
x[6,2,8,3] 1
x[6,2,9,0] 0
x[6,2,9,1] 0
x[6,2,9,2] 0
x[6,2,9,3] 0
x[6,2,10,0] 0
x[6,2,10,1] 0
x[6,2,10,2] 0
x[6,2,10,3] 0
x[6,3,0,0] 0
x[6,3,0,1] 0
x[6,3,0,2] 0
x[6,3,0,3] 0
x[6,3,1,0] 0
x[6,3,1,1] 0
x[6,3,1,2] 0
x[6,3,1,3] 0
x[6,3,2,0] 0
x[6,3,2,1] 0
x[6,3,2,2] 0
x[6,3,2,3] 0
x[6,3,3,0] 0
x[6,3,3,1] 0
x[6,3,3,2] 0
x[6,3,3,3] 0
x[6,3,4,0] 0
x[6,3,4,1] 0
x[6,3,4,2] 0
x[6,3,4,3] 0
x[6,3,5,0] 0
x[6,3,5,1] 0
x[6,3,5,2] 0
x[6,3,5,3] 0
x[6,3,6,0] 0
x[6,3,6,1] 0
x[6,3,6,2] 1
x[6,3,6,3] 0
x[6,3,7,0] 0
x[6,3,7,1] 0
x[6,3,7,2] 0
x[6,3,7,3] 0
x[6,3,8,0] 0
x[6,3,8,1] 0
x[6,3,8,2] 0
x[6,3,8,3] 0
x[6,3,9,0] 0
x[6,3,9,1] 0
x[6,3,9,2] 0
x[6,3,9,3] 1
x[6,3,10,0] 0
x[6,3,10,1] 0
x[6,3,10,2] 0
x[6,3,10,3] 1
x[7,0,0,0] 0
x[7,0,0,1] 0
x[7,0,0,2] 0
x[7,0,0,3] 0
x[7,0,1,0] 0
x[7,0,1,1] 0
x[7,0,1,2] 0
x[7,0,1,3] 0
x[7,0,2,0] 0
x[7,0,2,1] 0
x[7,0,2,2] 0
x[7,0,2,3] 0
x[7,0,3,0] 0
x[7,0,3,1] 0
x[7,0,3,2] 0
x[7,0,3,3] 0
x[7,0,4,0] 0
x[7,0,4,1] 0
x[7,0,4,2] 0
x[7,0,4,3] 0
x[7,0,5,0] 0
x[7,0,5,1] 0
x[7,0,5,2] 0
x[7,0,5,3] 0
x[7,0,6,0] 0
x[7,0,6,1] 0
x[7,0,6,2] 0
x[7,0,6,3] 0
x[7,0,7,0] 0
x[7,0,7,1] 0
x[7,0,7,2] 0
x[7,0,7,3] 0
x[7,0,8,0] 0
x[7,0,8,1] 1
x[7,0,8,2] 0
x[7,0,8,3] 0
x[7,0,9,0] 0
x[7,0,9,1] 0
x[7,0,9,2] 0
x[7,0,9,3] 0
x[7,0,10,0] 1
x[7,0,10,1] 0
x[7,0,10,2] 0
x[7,0,10,3] 0
x[7,1,0,0] 0
x[7,1,0,1] 0
x[7,1,0,2] 0
x[7,1,0,3] 0
x[7,1,1,0] 0
x[7,1,1,1] 0
x[7,1,1,2] 0
x[7,1,1,3] 0
x[7,1,2,0] 0
x[7,1,2,1] 0
x[7,1,2,2] 0
x[7,1,2,3] 0
x[7,1,3,0] 0
x[7,1,3,1] 0
x[7,1,3,2] 0
x[7,1,3,3] 0
x[7,1,4,0] 0
x[7,1,4,1] 0
x[7,1,4,2] 0
x[7,1,4,3] 0
x[7,1,5,0] 0
x[7,1,5,1] 0
x[7,1,5,2] 0
x[7,1,5,3] 0
x[7,1,6,0] 0
x[7,1,6,1] 0
x[7,1,6,2] 0
x[7,1,6,3] 0
x[7,1,7,0] 1
x[7,1,7,1] 0
x[7,1,7,2] 1
x[7,1,7,3] 0
x[7,1,8,0] 0
x[7,1,8,1] 1
x[7,1,8,2] 0
x[7,1,8,3] 0
x[7,1,9,0] 0
x[7,1,9,1] 0
x[7,1,9,2] 0
x[7,1,9,3] 0
x[7,1,10,0] 0
x[7,1,10,1] 1
x[7,1,10,2] 0
x[7,1,10,3] 0
x[7,2,0,0] 0
x[7,2,0,1] 0
x[7,2,0,2] 0
x[7,2,0,3] 0
x[7,2,1,0] 0
x[7,2,1,1] 0
x[7,2,1,2] 0
x[7,2,1,3] 0
x[7,2,2,0] 0
x[7,2,2,1] 0
x[7,2,2,2] 0
x[7,2,2,3] 0
x[7,2,3,0] 0
x[7,2,3,1] 0
x[7,2,3,2] 0
x[7,2,3,3] 0
x[7,2,4,0] 0
x[7,2,4,1] 0
x[7,2,4,2] 0
x[7,2,4,3] 0
x[7,2,5,0] 0
x[7,2,5,1] 0
x[7,2,5,2] 0
x[7,2,5,3] 0
x[7,2,6,0] 0
x[7,2,6,1] 0
x[7,2,6,2] 0
x[7,2,6,3] 0
x[7,2,7,0] 0
x[7,2,7,1] 0
x[7,2,7,2] 0
x[7,2,7,3] 0
x[7,2,8,0] 0
x[7,2,8,1] 1
x[7,2,8,2] 0
x[7,2,8,3] 0
x[7,2,9,0] 0
x[7,2,9,1] 0
x[7,2,9,2] 0
x[7,2,9,3] 0
x[7,2,10,0] 0
x[7,2,10,1] 1
x[7,2,10,2] 0
x[7,2,10,3] 0
x[7,3,0,0] 0
x[7,3,0,1] 0
x[7,3,0,2] 0
x[7,3,0,3] 0
x[7,3,1,0] 0
x[7,3,1,1] 0
x[7,3,1,2] 0
x[7,3,1,3] 0
x[7,3,2,0] 0
x[7,3,2,1] 0
x[7,3,2,2] 0
x[7,3,2,3] 0
x[7,3,3,0] 0
x[7,3,3,1] 0
x[7,3,3,2] 0
x[7,3,3,3] 0
x[7,3,4,0] 0
x[7,3,4,1] 0
x[7,3,4,2] 0
x[7,3,4,3] 0
x[7,3,5,0] 0
x[7,3,5,1] 0
x[7,3,5,2] 0
x[7,3,5,3] 0
x[7,3,6,0] 0
x[7,3,6,1] 0
x[7,3,6,2] 0
x[7,3,6,3] 0
x[7,3,7,0] 0
x[7,3,7,1] 0
x[7,3,7,2] 0
x[7,3,7,3] 0
x[7,3,8,0] 0
x[7,3,8,1] 0
x[7,3,8,2] 0
x[7,3,8,3] 1
x[7,3,9,0] 0
x[7,3,9,1] 0
x[7,3,9,2] 0
x[7,3,9,3] 0
x[7,3,10,0] 0
x[7,3,10,1] 0
x[7,3,10,2] 0
x[7,3,10,3] 0
x[8,0,0,0] 0
x[8,0,0,1] 0
x[8,0,0,2] 0
x[8,0,0,3] 0
x[8,0,1,0] 0
x[8,0,1,1] 0
x[8,0,1,2] 0
x[8,0,1,3] 0
x[8,0,2,0] 0
x[8,0,2,1] 0
x[8,0,2,2] 0
x[8,0,2,3] 0
x[8,0,3,0] 0
x[8,0,3,1] 0
x[8,0,3,2] 0
x[8,0,3,3] 0
x[8,0,4,0] 0
x[8,0,4,1] 0
x[8,0,4,2] 0
x[8,0,4,3] 0
x[8,0,5,0] 0
x[8,0,5,1] 0
x[8,0,5,2] 0
x[8,0,5,3] 0
x[8,0,6,0] 0
x[8,0,6,1] 0
x[8,0,6,2] 0
x[8,0,6,3] 0
x[8,0,7,0] 0
x[8,0,7,1] 0
x[8,0,7,2] 0
x[8,0,7,3] 0
x[8,0,8,0] 0
x[8,0,8,1] 0
x[8,0,8,2] 0
x[8,0,8,3] 0
x[8,0,9,0] 0
x[8,0,9,1] 0
x[8,0,9,2] 0
x[8,0,9,3] 0
x[8,0,10,0] 0
x[8,0,10,1] 0
x[8,0,10,2] 0
x[8,0,10,3] 0
x[8,1,0,0] 0
x[8,1,0,1] 0
x[8,1,0,2] 0
x[8,1,0,3] 0
x[8,1,1,0] 0
x[8,1,1,1] 0
x[8,1,1,2] 0
x[8,1,1,3] 0
x[8,1,2,0] 0
x[8,1,2,1] 0
x[8,1,2,2] 0
x[8,1,2,3] 0
x[8,1,3,0] 0
x[8,1,3,1] 0
x[8,1,3,2] 0
x[8,1,3,3] 0
x[8,1,4,0] 0
x[8,1,4,1] 0
x[8,1,4,2] 0
x[8,1,4,3] 0
x[8,1,5,0] 0
x[8,1,5,1] 0
x[8,1,5,2] 0
x[8,1,5,3] 0
x[8,1,6,0] 0
x[8,1,6,1] 0
x[8,1,6,2] 0
x[8,1,6,3] 0
x[8,1,7,0] 0
x[8,1,7,1] 0
x[8,1,7,2] 0
x[8,1,7,3] 0
x[8,1,8,0] 0
x[8,1,8,1] 0
x[8,1,8,2] 0
x[8,1,8,3] 0
x[8,1,9,0] 0
x[8,1,9,1] 0
x[8,1,9,2] 0
x[8,1,9,3] 0
x[8,1,10,0] 0
x[8,1,10,1] 0
x[8,1,10,2] 0
x[8,1,10,3] 0
x[8,2,0,0] 0
x[8,2,0,1] 0
x[8,2,0,2] 0
x[8,2,0,3] 0
x[8,2,1,0] 0
x[8,2,1,1] 0
x[8,2,1,2] 0
x[8,2,1,3] 0
x[8,2,2,0] 0
x[8,2,2,1] 0
x[8,2,2,2] 0
x[8,2,2,3] 0
x[8,2,3,0] 0
x[8,2,3,1] 0
x[8,2,3,2] 0
x[8,2,3,3] 0
x[8,2,4,0] 0
x[8,2,4,1] 0
x[8,2,4,2] 0
x[8,2,4,3] 0
x[8,2,5,0] 0
x[8,2,5,1] 0
x[8,2,5,2] 0
x[8,2,5,3] 0
x[8,2,6,0] 0
x[8,2,6,1] 0
x[8,2,6,2] 0
x[8,2,6,3] 0
x[8,2,7,0] 0
x[8,2,7,1] 0
x[8,2,7,2] 0
x[8,2,7,3] 0
x[8,2,8,0] 0
x[8,2,8,1] 0
x[8,2,8,2] 0
x[8,2,8,3] 0
x[8,2,9,0] 0
x[8,2,9,1] 0
x[8,2,9,2] 0
x[8,2,9,3] 0
x[8,2,10,0] 0
x[8,2,10,1] 0
x[8,2,10,2] 0
x[8,2,10,3] 0
x[8,3,0,0] 0
x[8,3,0,1] 0
x[8,3,0,2] 0
x[8,3,0,3] 0
x[8,3,1,0] 0
x[8,3,1,1] 0
x[8,3,1,2] 0
x[8,3,1,3] 0
x[8,3,2,0] 0
x[8,3,2,1] 0
x[8,3,2,2] 0
x[8,3,2,3] 0
x[8,3,3,0] 0
x[8,3,3,1] 0
x[8,3,3,2] 0
x[8,3,3,3] 0
x[8,3,4,0] 0
x[8,3,4,1] 0
x[8,3,4,2] 0
x[8,3,4,3] 0
x[8,3,5,0] 0
x[8,3,5,1] 0
x[8,3,5,2] 0
x[8,3,5,3] 0
x[8,3,6,0] 0
x[8,3,6,1] 0
x[8,3,6,2] 0
x[8,3,6,3] 0
x[8,3,7,0] 0
x[8,3,7,1] 0
x[8,3,7,2] 0
x[8,3,7,3] 0
x[8,3,8,0] 0
x[8,3,8,1] 0
x[8,3,8,2] 1
x[8,3,8,3] 0
x[8,3,9,0] 0
x[8,3,9,1] 0
x[8,3,9,2] 0
x[8,3,9,3] 0
x[8,3,10,0] 0
x[8,3,10,1] 0
x[8,3,10,2] 0
x[8,3,10,3] 0
x[9,0,0,0] 0
x[9,0,0,1] 0
x[9,0,0,2] 0
x[9,0,0,3] 0
x[9,0,1,0] 0
x[9,0,1,1] 0
x[9,0,1,2] 0
x[9,0,1,3] 0
x[9,0,2,0] 0
x[9,0,2,1] 0
x[9,0,2,2] 0
x[9,0,2,3] 0
x[9,0,3,0] 0
x[9,0,3,1] 0
x[9,0,3,2] 0
x[9,0,3,3] 0
x[9,0,4,0] 0
x[9,0,4,1] 0
x[9,0,4,2] 0
x[9,0,4,3] 0
x[9,0,5,0] 0
x[9,0,5,1] 0
x[9,0,5,2] 0
x[9,0,5,3] 0
x[9,0,6,0] 0
x[9,0,6,1] 0
x[9,0,6,2] 0
x[9,0,6,3] 0
x[9,0,7,0] 0
x[9,0,7,1] 0
x[9,0,7,2] 0
x[9,0,7,3] 0
x[9,0,8,0] 0
x[9,0,8,1] 0
x[9,0,8,2] 0
x[9,0,8,3] 0
x[9,0,9,0] 0
x[9,0,9,1] 0
x[9,0,9,2] 0
x[9,0,9,3] 0
x[9,0,10,0] 1
x[9,0,10,1] 0
x[9,0,10,2] 0
x[9,0,10,3] 0
x[9,1,0,0] 0
x[9,1,0,1] 0
x[9,1,0,2] 0
x[9,1,0,3] 0
x[9,1,1,0] 0
x[9,1,1,1] 0
x[9,1,1,2] 0
x[9,1,1,3] 0
x[9,1,2,0] 0
x[9,1,2,1] 0
x[9,1,2,2] 0
x[9,1,2,3] 0
x[9,1,3,0] 0
x[9,1,3,1] 0
x[9,1,3,2] 0
x[9,1,3,3] 0
x[9,1,4,0] 0
x[9,1,4,1] 0
x[9,1,4,2] 0
x[9,1,4,3] 0
x[9,1,5,0] 0
x[9,1,5,1] 0
x[9,1,5,2] 0
x[9,1,5,3] 0
x[9,1,6,0] 0
x[9,1,6,1] 0
x[9,1,6,2] 0
x[9,1,6,3] 0
x[9,1,7,0] 0
x[9,1,7,1] 0
x[9,1,7,2] 0
x[9,1,7,3] 0
x[9,1,8,0] 0
x[9,1,8,1] 0
x[9,1,8,2] 0
x[9,1,8,3] 0
x[9,1,9,0] 1
x[9,1,9,1] 0
x[9,1,9,2] 0
x[9,1,9,3] 0
x[9,1,10,0] 0
x[9,1,10,1] 1
x[9,1,10,2] 0
x[9,1,10,3] 0
x[9,2,0,0] 0
x[9,2,0,1] 0
x[9,2,0,2] 0
x[9,2,0,3] 0
x[9,2,1,0] 0
x[9,2,1,1] 0
x[9,2,1,2] 0
x[9,2,1,3] 0
x[9,2,2,0] 0
x[9,2,2,1] 0
x[9,2,2,2] 0
x[9,2,2,3] 0
x[9,2,3,0] 0
x[9,2,3,1] 0
x[9,2,3,2] 0
x[9,2,3,3] 0
x[9,2,4,0] 0
x[9,2,4,1] 0
x[9,2,4,2] 0
x[9,2,4,3] 0
x[9,2,5,0] 0
x[9,2,5,1] 0
x[9,2,5,2] 0
x[9,2,5,3] 0
x[9,2,6,0] 0
x[9,2,6,1] 0
x[9,2,6,2] 0
x[9,2,6,3] 0
x[9,2,7,0] 0
x[9,2,7,1] 0
x[9,2,7,2] 0
x[9,2,7,3] 0
x[9,2,8,0] 0
x[9,2,8,1] 0
x[9,2,8,2] 0
x[9,2,8,3] 0
x[9,2,9,0] 0
x[9,2,9,1] 1
x[9,2,9,2] 0
x[9,2,9,3] 0
x[9,2,10,0] 1
x[9,2,10,1] 0
x[9,2,10,2] 0
x[9,2,10,3] 0
x[9,3,0,0] 0
x[9,3,0,1] 0
x[9,3,0,2] 0
x[9,3,0,3] 0
x[9,3,1,0] 0
x[9,3,1,1] 0
x[9,3,1,2] 0
x[9,3,1,3] 0
x[9,3,2,0] 0
x[9,3,2,1] 0
x[9,3,2,2] 0
x[9,3,2,3] 0
x[9,3,3,0] 0
x[9,3,3,1] 0
x[9,3,3,2] 0
x[9,3,3,3] 0
x[9,3,4,0] 0
x[9,3,4,1] 0
x[9,3,4,2] 0
x[9,3,4,3] 0
x[9,3,5,0] 0
x[9,3,5,1] 0
x[9,3,5,2] 0
x[9,3,5,3] 0
x[9,3,6,0] 0
x[9,3,6,1] 0
x[9,3,6,2] 0
x[9,3,6,3] 0
x[9,3,7,0] 0
x[9,3,7,1] 0
x[9,3,7,2] 0
x[9,3,7,3] 0
x[9,3,8,0] 0
x[9,3,8,1] 0
x[9,3,8,2] 0
x[9,3,8,3] 0
x[9,3,9,0] 0
x[9,3,9,1] 0
x[9,3,9,2] 0
x[9,3,9,3] 0
x[9,3,10,0] 0
x[9,3,10,1] 0
x[9,3,10,2] 0
x[9,3,10,3] 0
x[10,0,0,0] 0
x[10,0,0,1] 0
x[10,0,0,2] 0
x[10,0,0,3] 0
x[10,0,1,0] 0
x[10,0,1,1] 0
x[10,0,1,2] 0
x[10,0,1,3] 0
x[10,0,2,0] 0
x[10,0,2,1] 0
x[10,0,2,2] 0
x[10,0,2,3] 0
x[10,0,3,0] 0
x[10,0,3,1] 0
x[10,0,3,2] 0
x[10,0,3,3] 0
x[10,0,4,0] 0
x[10,0,4,1] 0
x[10,0,4,2] 0
x[10,0,4,3] 0
x[10,0,5,0] 0
x[10,0,5,1] 0
x[10,0,5,2] 0
x[10,0,5,3] 0
x[10,0,6,0] 0
x[10,0,6,1] 0
x[10,0,6,2] 0
x[10,0,6,3] 0
x[10,0,7,0] 0
x[10,0,7,1] 0
x[10,0,7,2] 0
x[10,0,7,3] 0
x[10,0,8,0] 0
x[10,0,8,1] 0
x[10,0,8,2] 0
x[10,0,8,3] 0
x[10,0,9,0] 0
x[10,0,9,1] 0
x[10,0,9,2] 0
x[10,0,9,3] 0
x[10,0,10,0] 0
x[10,0,10,1] 0
x[10,0,10,2] 0
x[10,0,10,3] 0
x[10,1,0,0] 0
x[10,1,0,1] 0
x[10,1,0,2] 0
x[10,1,0,3] 0
x[10,1,1,0] 0
x[10,1,1,1] 0
x[10,1,1,2] 0
x[10,1,1,3] 0
x[10,1,2,0] 0
x[10,1,2,1] 0
x[10,1,2,2] 0
x[10,1,2,3] 0
x[10,1,3,0] 0
x[10,1,3,1] 0
x[10,1,3,2] 0
x[10,1,3,3] 0
x[10,1,4,0] 0
x[10,1,4,1] 0
x[10,1,4,2] 0
x[10,1,4,3] 0
x[10,1,5,0] 0
x[10,1,5,1] 0
x[10,1,5,2] 0
x[10,1,5,3] 0
x[10,1,6,0] 0
x[10,1,6,1] 0
x[10,1,6,2] 0
x[10,1,6,3] 0
x[10,1,7,0] 0
x[10,1,7,1] 0
x[10,1,7,2] 0
x[10,1,7,3] 0
x[10,1,8,0] 0
x[10,1,8,1] 0
x[10,1,8,2] 0
x[10,1,8,3] 0
x[10,1,9,0] 0
x[10,1,9,1] 0
x[10,1,9,2] 0
x[10,1,9,3] 0
x[10,1,10,0] 0
x[10,1,10,1] 0
x[10,1,10,2] 0
x[10,1,10,3] 0
x[10,2,0,0] 0
x[10,2,0,1] 0
x[10,2,0,2] 0
x[10,2,0,3] 0
x[10,2,1,0] 0
x[10,2,1,1] 0
x[10,2,1,2] 0
x[10,2,1,3] 0
x[10,2,2,0] 0
x[10,2,2,1] 0
x[10,2,2,2] 0
x[10,2,2,3] 0
x[10,2,3,0] 0
x[10,2,3,1] 0
x[10,2,3,2] 0
x[10,2,3,3] 0
x[10,2,4,0] 0
x[10,2,4,1] 0
x[10,2,4,2] 0
x[10,2,4,3] 0
x[10,2,5,0] 0
x[10,2,5,1] 0
x[10,2,5,2] 0
x[10,2,5,3] 0
x[10,2,6,0] 0
x[10,2,6,1] 0
x[10,2,6,2] 0
x[10,2,6,3] 0
x[10,2,7,0] 0
x[10,2,7,1] 0
x[10,2,7,2] 0
x[10,2,7,3] 0
x[10,2,8,0] 0
x[10,2,8,1] 0
x[10,2,8,2] 0
x[10,2,8,3] 0
x[10,2,9,0] 0
x[10,2,9,1] 0
x[10,2,9,2] 0
x[10,2,9,3] 0
x[10,2,10,0] 0
x[10,2,10,1] 0
x[10,2,10,2] 0
x[10,2,10,3] 0
x[10,3,0,0] 0
x[10,3,0,1] 0
x[10,3,0,2] 0
x[10,3,0,3] 0
x[10,3,1,0] 0
x[10,3,1,1] 0
x[10,3,1,2] 0
x[10,3,1,3] 0
x[10,3,2,0] 0
x[10,3,2,1] 0
x[10,3,2,2] 0
x[10,3,2,3] 0
x[10,3,3,0] 0
x[10,3,3,1] 0
x[10,3,3,2] 0
x[10,3,3,3] 0
x[10,3,4,0] 0
x[10,3,4,1] 0
x[10,3,4,2] 0
x[10,3,4,3] 0
x[10,3,5,0] 0
x[10,3,5,1] 0
x[10,3,5,2] 0
x[10,3,5,3] 0
x[10,3,6,0] 0
x[10,3,6,1] 0
x[10,3,6,2] 0
x[10,3,6,3] 0
x[10,3,7,0] 0
x[10,3,7,1] 0
x[10,3,7,2] 0
x[10,3,7,3] 0
x[10,3,8,0] 0
x[10,3,8,1] 0
x[10,3,8,2] 0
x[10,3,8,3] 0
x[10,3,9,0] 0
x[10,3,9,1] 0
x[10,3,9,2] 0
x[10,3,9,3] 0
x[10,3,10,0] 0
x[10,3,10,1] 0
x[10,3,10,2] 1
x[10,3,10,3] 0
s[0,0,6] 3.0849999999999163e+03
s[0,0,7] 0
s[0,1,3] 2.8839999999999104e+03
s[0,1,4] 0
s[0,1,6] 0
s[0,2,1] 2.2079999999999786e+03
s[0,2,3] 0
s[0,2,6] 0
s[0,3,0] 1.9619999999999814e+03
s[0,3,1] 0
s[0,3,2] 0
s[1,0,4] 0
s[1,0,7] 1.5009999999999736e+03
s[1,1,4] 0
s[1,1,5] 0
s[1,1,6] 1.3439999999999163e+03
s[1,2,1] 0
s[1,2,2] 1.2569999999999995e+03
s[1,3,0] 1.0430000000000002e+03
s[1,3,2] 0
s[2,0,5] 0
s[2,0,7] 2.5439999999999168e+03
s[2,1,3] 2.3539999999999191e+03
s[2,1,4] 0
s[2,1,5] 0
s[2,2,2] 0
s[2,2,3] 0
s[2,2,6] 1.6529999999999859e+03
s[2,3,0] 1566
s[2,3,1] 0
s[3,0,4] 1.6049999999998695e+03
s[3,0,5] 0
s[3,1,3] 0
s[3,1,5] 1.4689999999998695e+03
s[3,2,2] 7.8899999999992849e+02
s[3,2,4] 0
s[3,3,0] 480
s[3,3,1] 0
s[4,0,5] 0
s[4,0,7] 734
s[4,1,1] 0
s[4,1,4] 0
s[4,1,5] 649
s[4,2,3] 0
s[4,2,4] 6.0200000000000057e+02
s[4,2,6] 0
s[4,3,0] 0
s[4,3,1] 4.8000000000000915e+02
s[4,3,2] 0
s[5,0,3] 0
s[5,0,6] 2.3989999999999163e+03
s[5,1,4] 0
s[5,1,5] 2.0149999999998645e+03
s[5,1,6] 0
s[5,2,2] 0
s[5,2,3] 1.8189999999999307e+03
s[5,2,4] 0
s[5,3,1] 1.6739999999999345e+03
s[5,3,2] 0
s[5,3,3] 0
s[6,0,4] 0
s[6,0,7] 2.1409999999998668e+03
s[6,1,4] 1.9959999999998677e+03
s[6,1,5] 0
s[6,1,6] 0
s[6,2,2] 1.8219999999999995e+03
s[6,2,4] 0
s[6,3,1] 1.0859999999998327e+03
s[6,3,2] 0
s[7,0,6] 0
s[7,0,7] 3.0629999999997540e+03
s[7,1,4] 2.9179999999997540e+03
s[7,1,5] 0
s[7,1,6] 0
s[7,2,4] 2.5969999999998645e+03
s[7,2,5] 0
s[7,3,2] 2.1069999999999995e+03
s[7,3,3] 0
s[8,0,5] 965
s[8,0,7] 0
s[8,1,4] 0
s[8,1,6] 8.4999999999998545e+02
s[8,2,2] 0
s[8,2,3] 6.2999999999998545e+02
s[8,3,1] 0
s[8,3,2] 480
s[9,0,6] 0
s[9,0,7] 3.7640000000001228e+03
s[9,1,4] 3.6190000000001237e+03
s[9,1,5] 0
s[9,1,6] 0
s[9,2,4] 0
s[9,2,5] 3.3950000000001237e+03
s[9,3,2] 3.1380000000001237e+03
s[9,3,3] 0
s[10,0,5] 0
s[10,0,7] 1.1769999999999761e+03
s[10,1,4] 1.1369999999998622e+03
s[10,1,6] 0
s[10,2,2] 0
s[10,2,3] 9.1699999999998181e+02
s[10,3,1] 7.1399999999993452e+02
s[10,3,2] 0
Z_FO 24818
